11
2147483647 47 3 32 28 91 82 6 34 17 38 
47 2147483647 18 30 12 28 72 30 5 29 19 
3 18 2147483647 1 86 13 11 53 13 99 65 
32 30 1 2147483647 95 72 34 27 51 11 58 
28 12 86 95 2147483647 41 52 58 85 64 100 
91 28 13 72 41 2147483647 18 94 64 43 23 
82 72 11 34 52 18 2147483647 5 30 9 12 
6 30 53 27 58 94 5 2147483647 19 4 88 
34 5 13 51 85 64 30 19 2147483647 59 58 
17 29 99 11 64 43 9 4 59 2147483647 54 
38 19 65 58 100 23 12 88 58 54 2147483647 
